&control
   prefix = 'MoS2'
   calculation = 'nscf'
   restart_mode = 'from_scratch'
   disk_io = 'low'
   outdir = './'
   wfcdir = './'
   pseudo_dir = '../pseudos'
   dipfield = .true.
/
&system
   nbnd = 34
   ibrav = 4
   nat = 3
   ntyp = 2
   ecutwfc = 40.0
   celldm(1) = 5.98620263
   celldm(3) = 5.05088419
   vdw_corr = 'grimme-d3'
   dftd3_threebody = .false.
   assume_isolated = '2D'
   noncolin = .true.
   lspinorb = .true.
/
&electrons
   electron_maxstep = 1500
   conv_thr = 1.0d-10
   diagonalization = 'cg'
   diago_full_acc = .true.
   startingwfc = 'random'
/
ATOMIC_SPECIES
Mo  95.95 Mo_NC_FR_PBE_dojo.upf
 S  32.06  S_NC_FR_PBE_dojo.upf
ATOMIC_POSITIONS crystal
Mo               0.0000000000        0.0000000000        0.5000000000
S                0.3333333330        0.6666666670        0.5979432060
S                0.3333333330        0.6666666670        0.4020577940
K_POINTS crystal
108
  0.004629486  0.004629486  0.000000000   1.0
  0.004629486  0.171296153  0.000000000   1.0
  0.171296153  0.837962819  0.000000000   1.0
  0.837962819  0.004629486  0.000000000   1.0
  0.004629486  0.337962819  0.000000000   1.0
  0.337962819  0.671296153  0.000000000   1.0
  0.671296153  0.004629486  0.000000000   1.0
  0.004629486  0.504629486  0.000000000   1.0
  0.504629486  0.504629486  0.000000000   1.0
  0.504629486  0.004629486  0.000000000   1.0
  0.004629486  0.671296153  0.000000000   1.0
  0.671296153  0.337962819  0.000000000   1.0
  0.337962819  0.004629486  0.000000000   1.0
  0.004629486  0.837962819  0.000000000   1.0
  0.837962819  0.171296153  0.000000000   1.0
  0.171296153  0.004629486  0.000000000   1.0
  0.171296153  0.171296153  0.000000000   1.0
  0.837962819  0.337962820  0.000000000   1.0
  0.171296153  0.671296152  0.000000000   1.0
  0.671296152  0.171296153  0.000000000   1.0
  0.837962819  0.837962819  0.000000000   1.0
  0.337962820  0.837962819  0.000000000   1.0
  0.171296153  0.337962819  0.000000000   1.0
  0.837962819  0.504629486  0.000000000   1.0
  0.337962819  0.504629486  0.000000000   1.0
  0.504629486  0.171296153  0.000000000   1.0
  0.671296153  0.837962819  0.000000000   1.0
  0.504629486  0.671296153  0.000000000   1.0
  0.171296153  0.504629486  0.000000000   1.0
  0.837962819  0.671296153  0.000000000   1.0
  0.504629486  0.337962819  0.000000000   1.0
  0.337962819  0.171296153  0.000000000   1.0
  0.504629486  0.837962819  0.000000000   1.0
  0.671296153  0.504629486  0.000000000   1.0
  0.337962819  0.337962819  0.000000000   1.0
  0.671296153  0.671296152  0.000000000   1.0
  0.018517942  0.018517942  0.000000000   1.0
  0.018517942  0.185184609  0.000000000   1.0
  0.185184609  0.851851275  0.000000000   1.0
  0.851851275  0.018517942  0.000000000   1.0
  0.018517942  0.351851275  0.000000000   1.0
  0.351851275  0.685184609  0.000000000   1.0
  0.685184609  0.018517942  0.000000000   1.0
  0.018517942  0.518517942  0.000000000   1.0
  0.518517942  0.518517942  0.000000000   1.0
  0.518517942  0.018517942  0.000000000   1.0
  0.018517942  0.685184609  0.000000000   1.0
  0.685184609  0.351851275  0.000000000   1.0
  0.351851275  0.018517942  0.000000000   1.0
  0.018517942  0.851851275  0.000000000   1.0
  0.851851275  0.185184609  0.000000000   1.0
  0.185184609  0.018517942  0.000000000   1.0
  0.185184609  0.185184609  0.000000000   1.0
  0.851851275  0.351851276  0.000000000   1.0
  0.185184609  0.685184608  0.000000000   1.0
  0.685184608  0.185184609  0.000000000   1.0
  0.851851275  0.851851275  0.000000000   1.0
  0.351851276  0.851851275  0.000000000   1.0
  0.185184609  0.351851275  0.000000000   1.0
  0.851851275  0.518517942  0.000000000   1.0
  0.351851275  0.518517942  0.000000000   1.0
  0.518517942  0.185184609  0.000000000   1.0
  0.685184609  0.851851275  0.000000000   1.0
  0.518517942  0.685184609  0.000000000   1.0
  0.185184609  0.518517942  0.000000000   1.0
  0.851851275  0.685184609  0.000000000   1.0
  0.518517942  0.351851275  0.000000000   1.0
  0.351851275  0.185184609  0.000000000   1.0
  0.518517942  0.851851275  0.000000000   1.0
  0.685184609  0.518517942  0.000000000   1.0
  0.351851275  0.351851275  0.000000000   1.0
  0.685184609  0.685184608  0.000000000   1.0
  0.041665370  0.041665370  0.000000000   1.0
  0.041665370  0.208332037  0.000000000   1.0
  0.208332037  0.874998703  0.000000000   1.0
  0.874998703  0.041665370  0.000000000   1.0
  0.041665370  0.374998703  0.000000000   1.0
  0.374998703  0.708332037  0.000000000   1.0
  0.708332037  0.041665370  0.000000000   1.0
  0.041665370  0.541665370  0.000000000   1.0
  0.541665370  0.541665370  0.000000000   1.0
  0.541665370  0.041665370  0.000000000   1.0
  0.041665370  0.708332037  0.000000000   1.0
  0.708332037  0.374998703  0.000000000   1.0
  0.374998703  0.041665370  0.000000000   1.0
  0.041665370  0.874998703  0.000000000   1.0
  0.874998703  0.208332037  0.000000000   1.0
  0.208332037  0.041665370  0.000000000   1.0
  0.208332037  0.208332037  0.000000000   1.0
  0.874998703  0.374998704  0.000000000   1.0
  0.208332037  0.708332036  0.000000000   1.0
  0.708332036  0.208332037  0.000000000   1.0
  0.874998703  0.874998703  0.000000000   1.0
  0.374998704  0.874998703  0.000000000   1.0
  0.208332037  0.374998703  0.000000000   1.0
  0.874998703  0.541665370  0.000000000   1.0
  0.374998703  0.541665370  0.000000000   1.0
  0.541665370  0.208332037  0.000000000   1.0
  0.708332037  0.874998703  0.000000000   1.0
  0.541665370  0.708332037  0.000000000   1.0
  0.208332037  0.541665370  0.000000000   1.0
  0.874998703  0.708332037  0.000000000   1.0
  0.541665370  0.374998703  0.000000000   1.0
  0.374998703  0.208332037  0.000000000   1.0
  0.541665370  0.874998703  0.000000000   1.0
  0.708332037  0.541665370  0.000000000   1.0
  0.374998703  0.374998703  0.000000000   1.0
  0.708332037  0.708332036  0.000000000   1.0
