&control
   prefix = 'MoS2'
   calculation = 'scf'
   restart_mode = 'from_scratch'
   disk_io = 'low'
   outdir = './'
   wfcdir = './'
   pseudo_dir = '../pseudos'
   dipfield = .true.
/
&system
   ibrav = 4
   nat = 3
   ntyp = 2
   ecutwfc = 40.0
   celldm(1) = 5.98620263
   celldm(3) = 5.05088419
   vdw_corr = 'grimme-d3'
   dftd3_threebody = .false.
   assume_isolated = '2D'
   noncolin = .true.
   lspinorb = .true.
/
&electrons
   electron_maxstep = 1500
   conv_thr = 1.0d-10
   mixing_mode = 'plain'
   mixing_beta = 0.3
   mixing_ndim = 8
   diagonalization = 'david'
   diago_full_acc = .true.
   startingwfc = 'random'
/
ATOMIC_SPECIES
Mo  95.95 Mo_NC_FR_PBE_dojo.upf
 S  32.06  S_NC_FR_PBE_dojo.upf
ATOMIC_POSITIONS crystal
Mo               0.000000000        0.000000000        0.500000000
S                0.333333333        0.666666667        0.597943206
S                0.333333333        0.666666667        0.402057794
K_POINTS automatic
 12 12 1 0 0 0
