&control
   prefix = 'MoS2'
   calculation = 'nscf'
   restart_mode = 'from_scratch'
   disk_io = 'low'
   outdir = './'
   wfcdir = './'
   pseudo_dir = '../pseudos'
   dipfield = .true.
/
&system
   nbnd = 34
   ibrav = 4
   nat = 3
   ntyp = 2
   ecutwfc = 40.0
   celldm(1) = 5.98620263
   celldm(3) = 5.05088419
   vdw_corr = 'grimme-d3'
   dftd3_threebody = .false.
   assume_isolated = '2D'
   noncolin = .true.
   lspinorb = .true.
/
&electrons
   electron_maxstep = 1500
   conv_thr = 1.0d-10
   diagonalization = 'cg'
   diago_full_acc = .true.
   startingwfc = 'random'
/
ATOMIC_SPECIES
Mo  95.95 Mo_NC_FR_PBE_dojo.upf
 S  32.06  S_NC_FR_PBE_dojo.upf
ATOMIC_POSITIONS crystal
Mo               0.0000000000        0.0000000000        0.5000000000
S                0.3333333330        0.6666666670        0.5979432060
S                0.3333333330        0.6666666670        0.4020577940
K_POINTS crystal
   1296
 0.000000000  0.000000000  0.000000000   1.0
 0.000000000  0.027777778  0.000000000   1.0
 0.000000000  0.055555556  0.000000000   1.0
 0.000000000  0.083333333  0.000000000   1.0
 0.000000000  0.111111111  0.000000000   1.0
 0.000000000  0.138888889  0.000000000   1.0
 0.000000000  0.166666667  0.000000000   1.0
 0.000000000  0.194444444  0.000000000   1.0
 0.000000000  0.222222222  0.000000000   1.0
 0.000000000  0.250000000  0.000000000   1.0
 0.000000000  0.277777778  0.000000000   1.0
 0.000000000  0.305555556  0.000000000   1.0
 0.000000000  0.333333333  0.000000000   1.0
 0.000000000  0.361111111  0.000000000   1.0
 0.000000000  0.388888889  0.000000000   1.0
 0.000000000  0.416666667  0.000000000   1.0
 0.000000000  0.444444444  0.000000000   1.0
 0.000000000  0.472222222  0.000000000   1.0
 0.000000000  0.500000000  0.000000000   1.0
 0.000000000  0.527777778  0.000000000   1.0
 0.000000000  0.555555556  0.000000000   1.0
 0.000000000  0.583333333  0.000000000   1.0
 0.000000000  0.611111111  0.000000000   1.0
 0.000000000  0.638888889  0.000000000   1.0
 0.000000000  0.666666667  0.000000000   1.0
 0.000000000  0.694444444  0.000000000   1.0
 0.000000000  0.722222222  0.000000000   1.0
 0.000000000  0.750000000  0.000000000   1.0
 0.000000000  0.777777778  0.000000000   1.0
 0.000000000  0.805555556  0.000000000   1.0
 0.000000000  0.833333333  0.000000000   1.0
 0.000000000  0.861111111  0.000000000   1.0
 0.000000000  0.888888889  0.000000000   1.0
 0.000000000  0.916666667  0.000000000   1.0
 0.000000000  0.944444444  0.000000000   1.0
 0.000000000  0.972222222  0.000000000   1.0
 0.027777778  0.000000000  0.000000000   1.0
 0.027777778  0.027777778  0.000000000   1.0
 0.027777778  0.055555556  0.000000000   1.0
 0.027777778  0.083333333  0.000000000   1.0
 0.027777778  0.111111111  0.000000000   1.0
 0.027777778  0.138888889  0.000000000   1.0
 0.027777778  0.166666667  0.000000000   1.0
 0.027777778  0.194444444  0.000000000   1.0
 0.027777778  0.222222222  0.000000000   1.0
 0.027777778  0.250000000  0.000000000   1.0
 0.027777778  0.277777778  0.000000000   1.0
 0.027777778  0.305555556  0.000000000   1.0
 0.027777778  0.333333333  0.000000000   1.0
 0.027777778  0.361111111  0.000000000   1.0
 0.027777778  0.388888889  0.000000000   1.0
 0.027777778  0.416666667  0.000000000   1.0
 0.027777778  0.444444444  0.000000000   1.0
 0.027777778  0.472222222  0.000000000   1.0
 0.027777778  0.500000000  0.000000000   1.0
 0.027777778  0.527777778  0.000000000   1.0
 0.027777778  0.555555556  0.000000000   1.0
 0.027777778  0.583333333  0.000000000   1.0
 0.027777778  0.611111111  0.000000000   1.0
 0.027777778  0.638888889  0.000000000   1.0
 0.027777778  0.666666667  0.000000000   1.0
 0.027777778  0.694444444  0.000000000   1.0
 0.027777778  0.722222222  0.000000000   1.0
 0.027777778  0.750000000  0.000000000   1.0
 0.027777778  0.777777778  0.000000000   1.0
 0.027777778  0.805555556  0.000000000   1.0
 0.027777778  0.833333333  0.000000000   1.0
 0.027777778  0.861111111  0.000000000   1.0
 0.027777778  0.888888889  0.000000000   1.0
 0.027777778  0.916666667  0.000000000   1.0
 0.027777778  0.944444444  0.000000000   1.0
 0.027777778  0.972222222  0.000000000   1.0
 0.055555556  0.000000000  0.000000000   1.0
 0.055555556  0.027777778  0.000000000   1.0
 0.055555556  0.055555556  0.000000000   1.0
 0.055555556  0.083333333  0.000000000   1.0
 0.055555556  0.111111111  0.000000000   1.0
 0.055555556  0.138888889  0.000000000   1.0
 0.055555556  0.166666667  0.000000000   1.0
 0.055555556  0.194444444  0.000000000   1.0
 0.055555556  0.222222222  0.000000000   1.0
 0.055555556  0.250000000  0.000000000   1.0
 0.055555556  0.277777778  0.000000000   1.0
 0.055555556  0.305555556  0.000000000   1.0
 0.055555556  0.333333333  0.000000000   1.0
 0.055555556  0.361111111  0.000000000   1.0
 0.055555556  0.388888889  0.000000000   1.0
 0.055555556  0.416666667  0.000000000   1.0
 0.055555556  0.444444444  0.000000000   1.0
 0.055555556  0.472222222  0.000000000   1.0
 0.055555556  0.500000000  0.000000000   1.0
 0.055555556  0.527777778  0.000000000   1.0
 0.055555556  0.555555556  0.000000000   1.0
 0.055555556  0.583333333  0.000000000   1.0
 0.055555556  0.611111111  0.000000000   1.0
 0.055555556  0.638888889  0.000000000   1.0
 0.055555556  0.666666667  0.000000000   1.0
 0.055555556  0.694444444  0.000000000   1.0
 0.055555556  0.722222222  0.000000000   1.0
 0.055555556  0.750000000  0.000000000   1.0
 0.055555556  0.777777778  0.000000000   1.0
 0.055555556  0.805555556  0.000000000   1.0
 0.055555556  0.833333333  0.000000000   1.0
 0.055555556  0.861111111  0.000000000   1.0
 0.055555556  0.888888889  0.000000000   1.0
 0.055555556  0.916666667  0.000000000   1.0
 0.055555556  0.944444444  0.000000000   1.0
 0.055555556  0.972222222  0.000000000   1.0
 0.083333333  0.000000000  0.000000000   1.0
 0.083333333  0.027777778  0.000000000   1.0
 0.083333333  0.055555556  0.000000000   1.0
 0.083333333  0.083333333  0.000000000   1.0
 0.083333333  0.111111111  0.000000000   1.0
 0.083333333  0.138888889  0.000000000   1.0
 0.083333333  0.166666667  0.000000000   1.0
 0.083333333  0.194444444  0.000000000   1.0
 0.083333333  0.222222222  0.000000000   1.0
 0.083333333  0.250000000  0.000000000   1.0
 0.083333333  0.277777778  0.000000000   1.0
 0.083333333  0.305555556  0.000000000   1.0
 0.083333333  0.333333333  0.000000000   1.0
 0.083333333  0.361111111  0.000000000   1.0
 0.083333333  0.388888889  0.000000000   1.0
 0.083333333  0.416666667  0.000000000   1.0
 0.083333333  0.444444444  0.000000000   1.0
 0.083333333  0.472222222  0.000000000   1.0
 0.083333333  0.500000000  0.000000000   1.0
 0.083333333  0.527777778  0.000000000   1.0
 0.083333333  0.555555556  0.000000000   1.0
 0.083333333  0.583333333  0.000000000   1.0
 0.083333333  0.611111111  0.000000000   1.0
 0.083333333  0.638888889  0.000000000   1.0
 0.083333333  0.666666667  0.000000000   1.0
 0.083333333  0.694444444  0.000000000   1.0
 0.083333333  0.722222222  0.000000000   1.0
 0.083333333  0.750000000  0.000000000   1.0
 0.083333333  0.777777778  0.000000000   1.0
 0.083333333  0.805555556  0.000000000   1.0
 0.083333333  0.833333333  0.000000000   1.0
 0.083333333  0.861111111  0.000000000   1.0
 0.083333333  0.888888889  0.000000000   1.0
 0.083333333  0.916666667  0.000000000   1.0
 0.083333333  0.944444444  0.000000000   1.0
 0.083333333  0.972222222  0.000000000   1.0
 0.111111111  0.000000000  0.000000000   1.0
 0.111111111  0.027777778  0.000000000   1.0
 0.111111111  0.055555556  0.000000000   1.0
 0.111111111  0.083333333  0.000000000   1.0
 0.111111111  0.111111111  0.000000000   1.0
 0.111111111  0.138888889  0.000000000   1.0
 0.111111111  0.166666667  0.000000000   1.0
 0.111111111  0.194444444  0.000000000   1.0
 0.111111111  0.222222222  0.000000000   1.0
 0.111111111  0.250000000  0.000000000   1.0
 0.111111111  0.277777778  0.000000000   1.0
 0.111111111  0.305555556  0.000000000   1.0
 0.111111111  0.333333333  0.000000000   1.0
 0.111111111  0.361111111  0.000000000   1.0
 0.111111111  0.388888889  0.000000000   1.0
 0.111111111  0.416666667  0.000000000   1.0
 0.111111111  0.444444444  0.000000000   1.0
 0.111111111  0.472222222  0.000000000   1.0
 0.111111111  0.500000000  0.000000000   1.0
 0.111111111  0.527777778  0.000000000   1.0
 0.111111111  0.555555556  0.000000000   1.0
 0.111111111  0.583333333  0.000000000   1.0
 0.111111111  0.611111111  0.000000000   1.0
 0.111111111  0.638888889  0.000000000   1.0
 0.111111111  0.666666667  0.000000000   1.0
 0.111111111  0.694444444  0.000000000   1.0
 0.111111111  0.722222222  0.000000000   1.0
 0.111111111  0.750000000  0.000000000   1.0
 0.111111111  0.777777778  0.000000000   1.0
 0.111111111  0.805555556  0.000000000   1.0
 0.111111111  0.833333333  0.000000000   1.0
 0.111111111  0.861111111  0.000000000   1.0
 0.111111111  0.888888889  0.000000000   1.0
 0.111111111  0.916666667  0.000000000   1.0
 0.111111111  0.944444444  0.000000000   1.0
 0.111111111  0.972222222  0.000000000   1.0
 0.138888889  0.000000000  0.000000000   1.0
 0.138888889  0.027777778  0.000000000   1.0
 0.138888889  0.055555556  0.000000000   1.0
 0.138888889  0.083333333  0.000000000   1.0
 0.138888889  0.111111111  0.000000000   1.0
 0.138888889  0.138888889  0.000000000   1.0
 0.138888889  0.166666667  0.000000000   1.0
 0.138888889  0.194444444  0.000000000   1.0
 0.138888889  0.222222222  0.000000000   1.0
 0.138888889  0.250000000  0.000000000   1.0
 0.138888889  0.277777778  0.000000000   1.0
 0.138888889  0.305555556  0.000000000   1.0
 0.138888889  0.333333333  0.000000000   1.0
 0.138888889  0.361111111  0.000000000   1.0
 0.138888889  0.388888889  0.000000000   1.0
 0.138888889  0.416666667  0.000000000   1.0
 0.138888889  0.444444444  0.000000000   1.0
 0.138888889  0.472222222  0.000000000   1.0
 0.138888889  0.500000000  0.000000000   1.0
 0.138888889  0.527777778  0.000000000   1.0
 0.138888889  0.555555556  0.000000000   1.0
 0.138888889  0.583333333  0.000000000   1.0
 0.138888889  0.611111111  0.000000000   1.0
 0.138888889  0.638888889  0.000000000   1.0
 0.138888889  0.666666667  0.000000000   1.0
 0.138888889  0.694444444  0.000000000   1.0
 0.138888889  0.722222222  0.000000000   1.0
 0.138888889  0.750000000  0.000000000   1.0
 0.138888889  0.777777778  0.000000000   1.0
 0.138888889  0.805555556  0.000000000   1.0
 0.138888889  0.833333333  0.000000000   1.0
 0.138888889  0.861111111  0.000000000   1.0
 0.138888889  0.888888889  0.000000000   1.0
 0.138888889  0.916666667  0.000000000   1.0
 0.138888889  0.944444444  0.000000000   1.0
 0.138888889  0.972222222  0.000000000   1.0
 0.166666667  0.000000000  0.000000000   1.0
 0.166666667  0.027777778  0.000000000   1.0
 0.166666667  0.055555556  0.000000000   1.0
 0.166666667  0.083333333  0.000000000   1.0
 0.166666667  0.111111111  0.000000000   1.0
 0.166666667  0.138888889  0.000000000   1.0
 0.166666667  0.166666667  0.000000000   1.0
 0.166666667  0.194444444  0.000000000   1.0
 0.166666667  0.222222222  0.000000000   1.0
 0.166666667  0.250000000  0.000000000   1.0
 0.166666667  0.277777778  0.000000000   1.0
 0.166666667  0.305555556  0.000000000   1.0
 0.166666667  0.333333333  0.000000000   1.0
 0.166666667  0.361111111  0.000000000   1.0
 0.166666667  0.388888889  0.000000000   1.0
 0.166666667  0.416666667  0.000000000   1.0
 0.166666667  0.444444444  0.000000000   1.0
 0.166666667  0.472222222  0.000000000   1.0
 0.166666667  0.500000000  0.000000000   1.0
 0.166666667  0.527777778  0.000000000   1.0
 0.166666667  0.555555556  0.000000000   1.0
 0.166666667  0.583333333  0.000000000   1.0
 0.166666667  0.611111111  0.000000000   1.0
 0.166666667  0.638888889  0.000000000   1.0
 0.166666667  0.666666667  0.000000000   1.0
 0.166666667  0.694444444  0.000000000   1.0
 0.166666667  0.722222222  0.000000000   1.0
 0.166666667  0.750000000  0.000000000   1.0
 0.166666667  0.777777778  0.000000000   1.0
 0.166666667  0.805555556  0.000000000   1.0
 0.166666667  0.833333333  0.000000000   1.0
 0.166666667  0.861111111  0.000000000   1.0
 0.166666667  0.888888889  0.000000000   1.0
 0.166666667  0.916666667  0.000000000   1.0
 0.166666667  0.944444444  0.000000000   1.0
 0.166666667  0.972222222  0.000000000   1.0
 0.194444444  0.000000000  0.000000000   1.0
 0.194444444  0.027777778  0.000000000   1.0
 0.194444444  0.055555556  0.000000000   1.0
 0.194444444  0.083333333  0.000000000   1.0
 0.194444444  0.111111111  0.000000000   1.0
 0.194444444  0.138888889  0.000000000   1.0
 0.194444444  0.166666667  0.000000000   1.0
 0.194444444  0.194444444  0.000000000   1.0
 0.194444444  0.222222222  0.000000000   1.0
 0.194444444  0.250000000  0.000000000   1.0
 0.194444444  0.277777778  0.000000000   1.0
 0.194444444  0.305555556  0.000000000   1.0
 0.194444444  0.333333333  0.000000000   1.0
 0.194444444  0.361111111  0.000000000   1.0
 0.194444444  0.388888889  0.000000000   1.0
 0.194444444  0.416666667  0.000000000   1.0
 0.194444444  0.444444444  0.000000000   1.0
 0.194444444  0.472222222  0.000000000   1.0
 0.194444444  0.500000000  0.000000000   1.0
 0.194444444  0.527777778  0.000000000   1.0
 0.194444444  0.555555556  0.000000000   1.0
 0.194444444  0.583333333  0.000000000   1.0
 0.194444444  0.611111111  0.000000000   1.0
 0.194444444  0.638888889  0.000000000   1.0
 0.194444444  0.666666667  0.000000000   1.0
 0.194444444  0.694444444  0.000000000   1.0
 0.194444444  0.722222222  0.000000000   1.0
 0.194444444  0.750000000  0.000000000   1.0
 0.194444444  0.777777778  0.000000000   1.0
 0.194444444  0.805555556  0.000000000   1.0
 0.194444444  0.833333333  0.000000000   1.0
 0.194444444  0.861111111  0.000000000   1.0
 0.194444444  0.888888889  0.000000000   1.0
 0.194444444  0.916666667  0.000000000   1.0
 0.194444444  0.944444444  0.000000000   1.0
 0.194444444  0.972222222  0.000000000   1.0
 0.222222222  0.000000000  0.000000000   1.0
 0.222222222  0.027777778  0.000000000   1.0
 0.222222222  0.055555556  0.000000000   1.0
 0.222222222  0.083333333  0.000000000   1.0
 0.222222222  0.111111111  0.000000000   1.0
 0.222222222  0.138888889  0.000000000   1.0
 0.222222222  0.166666667  0.000000000   1.0
 0.222222222  0.194444444  0.000000000   1.0
 0.222222222  0.222222222  0.000000000   1.0
 0.222222222  0.250000000  0.000000000   1.0
 0.222222222  0.277777778  0.000000000   1.0
 0.222222222  0.305555556  0.000000000   1.0
 0.222222222  0.333333333  0.000000000   1.0
 0.222222222  0.361111111  0.000000000   1.0
 0.222222222  0.388888889  0.000000000   1.0
 0.222222222  0.416666667  0.000000000   1.0
 0.222222222  0.444444444  0.000000000   1.0
 0.222222222  0.472222222  0.000000000   1.0
 0.222222222  0.500000000  0.000000000   1.0
 0.222222222  0.527777778  0.000000000   1.0
 0.222222222  0.555555556  0.000000000   1.0
 0.222222222  0.583333333  0.000000000   1.0
 0.222222222  0.611111111  0.000000000   1.0
 0.222222222  0.638888889  0.000000000   1.0
 0.222222222  0.666666667  0.000000000   1.0
 0.222222222  0.694444444  0.000000000   1.0
 0.222222222  0.722222222  0.000000000   1.0
 0.222222222  0.750000000  0.000000000   1.0
 0.222222222  0.777777778  0.000000000   1.0
 0.222222222  0.805555556  0.000000000   1.0
 0.222222222  0.833333333  0.000000000   1.0
 0.222222222  0.861111111  0.000000000   1.0
 0.222222222  0.888888889  0.000000000   1.0
 0.222222222  0.916666667  0.000000000   1.0
 0.222222222  0.944444444  0.000000000   1.0
 0.222222222  0.972222222  0.000000000   1.0
 0.250000000  0.000000000  0.000000000   1.0
 0.250000000  0.027777778  0.000000000   1.0
 0.250000000  0.055555556  0.000000000   1.0
 0.250000000  0.083333333  0.000000000   1.0
 0.250000000  0.111111111  0.000000000   1.0
 0.250000000  0.138888889  0.000000000   1.0
 0.250000000  0.166666667  0.000000000   1.0
 0.250000000  0.194444444  0.000000000   1.0
 0.250000000  0.222222222  0.000000000   1.0
 0.250000000  0.250000000  0.000000000   1.0
 0.250000000  0.277777778  0.000000000   1.0
 0.250000000  0.305555556  0.000000000   1.0
 0.250000000  0.333333333  0.000000000   1.0
 0.250000000  0.361111111  0.000000000   1.0
 0.250000000  0.388888889  0.000000000   1.0
 0.250000000  0.416666667  0.000000000   1.0
 0.250000000  0.444444444  0.000000000   1.0
 0.250000000  0.472222222  0.000000000   1.0
 0.250000000  0.500000000  0.000000000   1.0
 0.250000000  0.527777778  0.000000000   1.0
 0.250000000  0.555555556  0.000000000   1.0
 0.250000000  0.583333333  0.000000000   1.0
 0.250000000  0.611111111  0.000000000   1.0
 0.250000000  0.638888889  0.000000000   1.0
 0.250000000  0.666666667  0.000000000   1.0
 0.250000000  0.694444444  0.000000000   1.0
 0.250000000  0.722222222  0.000000000   1.0
 0.250000000  0.750000000  0.000000000   1.0
 0.250000000  0.777777778  0.000000000   1.0
 0.250000000  0.805555556  0.000000000   1.0
 0.250000000  0.833333333  0.000000000   1.0
 0.250000000  0.861111111  0.000000000   1.0
 0.250000000  0.888888889  0.000000000   1.0
 0.250000000  0.916666667  0.000000000   1.0
 0.250000000  0.944444444  0.000000000   1.0
 0.250000000  0.972222222  0.000000000   1.0
 0.277777778  0.000000000  0.000000000   1.0
 0.277777778  0.027777778  0.000000000   1.0
 0.277777778  0.055555556  0.000000000   1.0
 0.277777778  0.083333333  0.000000000   1.0
 0.277777778  0.111111111  0.000000000   1.0
 0.277777778  0.138888889  0.000000000   1.0
 0.277777778  0.166666667  0.000000000   1.0
 0.277777778  0.194444444  0.000000000   1.0
 0.277777778  0.222222222  0.000000000   1.0
 0.277777778  0.250000000  0.000000000   1.0
 0.277777778  0.277777778  0.000000000   1.0
 0.277777778  0.305555556  0.000000000   1.0
 0.277777778  0.333333333  0.000000000   1.0
 0.277777778  0.361111111  0.000000000   1.0
 0.277777778  0.388888889  0.000000000   1.0
 0.277777778  0.416666667  0.000000000   1.0
 0.277777778  0.444444444  0.000000000   1.0
 0.277777778  0.472222222  0.000000000   1.0
 0.277777778  0.500000000  0.000000000   1.0
 0.277777778  0.527777778  0.000000000   1.0
 0.277777778  0.555555556  0.000000000   1.0
 0.277777778  0.583333333  0.000000000   1.0
 0.277777778  0.611111111  0.000000000   1.0
 0.277777778  0.638888889  0.000000000   1.0
 0.277777778  0.666666667  0.000000000   1.0
 0.277777778  0.694444444  0.000000000   1.0
 0.277777778  0.722222222  0.000000000   1.0
 0.277777778  0.750000000  0.000000000   1.0
 0.277777778  0.777777778  0.000000000   1.0
 0.277777778  0.805555556  0.000000000   1.0
 0.277777778  0.833333333  0.000000000   1.0
 0.277777778  0.861111111  0.000000000   1.0
 0.277777778  0.888888889  0.000000000   1.0
 0.277777778  0.916666667  0.000000000   1.0
 0.277777778  0.944444444  0.000000000   1.0
 0.277777778  0.972222222  0.000000000   1.0
 0.305555556  0.000000000  0.000000000   1.0
 0.305555556  0.027777778  0.000000000   1.0
 0.305555556  0.055555556  0.000000000   1.0
 0.305555556  0.083333333  0.000000000   1.0
 0.305555556  0.111111111  0.000000000   1.0
 0.305555556  0.138888889  0.000000000   1.0
 0.305555556  0.166666667  0.000000000   1.0
 0.305555556  0.194444444  0.000000000   1.0
 0.305555556  0.222222222  0.000000000   1.0
 0.305555556  0.250000000  0.000000000   1.0
 0.305555556  0.277777778  0.000000000   1.0
 0.305555556  0.305555556  0.000000000   1.0
 0.305555556  0.333333333  0.000000000   1.0
 0.305555556  0.361111111  0.000000000   1.0
 0.305555556  0.388888889  0.000000000   1.0
 0.305555556  0.416666667  0.000000000   1.0
 0.305555556  0.444444444  0.000000000   1.0
 0.305555556  0.472222222  0.000000000   1.0
 0.305555556  0.500000000  0.000000000   1.0
 0.305555556  0.527777778  0.000000000   1.0
 0.305555556  0.555555556  0.000000000   1.0
 0.305555556  0.583333333  0.000000000   1.0
 0.305555556  0.611111111  0.000000000   1.0
 0.305555556  0.638888889  0.000000000   1.0
 0.305555556  0.666666667  0.000000000   1.0
 0.305555556  0.694444444  0.000000000   1.0
 0.305555556  0.722222222  0.000000000   1.0
 0.305555556  0.750000000  0.000000000   1.0
 0.305555556  0.777777778  0.000000000   1.0
 0.305555556  0.805555556  0.000000000   1.0
 0.305555556  0.833333333  0.000000000   1.0
 0.305555556  0.861111111  0.000000000   1.0
 0.305555556  0.888888889  0.000000000   1.0
 0.305555556  0.916666667  0.000000000   1.0
 0.305555556  0.944444444  0.000000000   1.0
 0.305555556  0.972222222  0.000000000   1.0
 0.333333333  0.000000000  0.000000000   1.0
 0.333333333  0.027777778  0.000000000   1.0
 0.333333333  0.055555556  0.000000000   1.0
 0.333333333  0.083333333  0.000000000   1.0
 0.333333333  0.111111111  0.000000000   1.0
 0.333333333  0.138888889  0.000000000   1.0
 0.333333333  0.166666667  0.000000000   1.0
 0.333333333  0.194444444  0.000000000   1.0
 0.333333333  0.222222222  0.000000000   1.0
 0.333333333  0.250000000  0.000000000   1.0
 0.333333333  0.277777778  0.000000000   1.0
 0.333333333  0.305555556  0.000000000   1.0
 0.333333333  0.333333333  0.000000000   1.0
 0.333333333  0.361111111  0.000000000   1.0
 0.333333333  0.388888889  0.000000000   1.0
 0.333333333  0.416666667  0.000000000   1.0
 0.333333333  0.444444444  0.000000000   1.0
 0.333333333  0.472222222  0.000000000   1.0
 0.333333333  0.500000000  0.000000000   1.0
 0.333333333  0.527777778  0.000000000   1.0
 0.333333333  0.555555556  0.000000000   1.0
 0.333333333  0.583333333  0.000000000   1.0
 0.333333333  0.611111111  0.000000000   1.0
 0.333333333  0.638888889  0.000000000   1.0
 0.333333333  0.666666667  0.000000000   1.0
 0.333333333  0.694444444  0.000000000   1.0
 0.333333333  0.722222222  0.000000000   1.0
 0.333333333  0.750000000  0.000000000   1.0
 0.333333333  0.777777778  0.000000000   1.0
 0.333333333  0.805555556  0.000000000   1.0
 0.333333333  0.833333333  0.000000000   1.0
 0.333333333  0.861111111  0.000000000   1.0
 0.333333333  0.888888889  0.000000000   1.0
 0.333333333  0.916666667  0.000000000   1.0
 0.333333333  0.944444444  0.000000000   1.0
 0.333333333  0.972222222  0.000000000   1.0
 0.361111111  0.000000000  0.000000000   1.0
 0.361111111  0.027777778  0.000000000   1.0
 0.361111111  0.055555556  0.000000000   1.0
 0.361111111  0.083333333  0.000000000   1.0
 0.361111111  0.111111111  0.000000000   1.0
 0.361111111  0.138888889  0.000000000   1.0
 0.361111111  0.166666667  0.000000000   1.0
 0.361111111  0.194444444  0.000000000   1.0
 0.361111111  0.222222222  0.000000000   1.0
 0.361111111  0.250000000  0.000000000   1.0
 0.361111111  0.277777778  0.000000000   1.0
 0.361111111  0.305555556  0.000000000   1.0
 0.361111111  0.333333333  0.000000000   1.0
 0.361111111  0.361111111  0.000000000   1.0
 0.361111111  0.388888889  0.000000000   1.0
 0.361111111  0.416666667  0.000000000   1.0
 0.361111111  0.444444444  0.000000000   1.0
 0.361111111  0.472222222  0.000000000   1.0
 0.361111111  0.500000000  0.000000000   1.0
 0.361111111  0.527777778  0.000000000   1.0
 0.361111111  0.555555556  0.000000000   1.0
 0.361111111  0.583333333  0.000000000   1.0
 0.361111111  0.611111111  0.000000000   1.0
 0.361111111  0.638888889  0.000000000   1.0
 0.361111111  0.666666667  0.000000000   1.0
 0.361111111  0.694444444  0.000000000   1.0
 0.361111111  0.722222222  0.000000000   1.0
 0.361111111  0.750000000  0.000000000   1.0
 0.361111111  0.777777778  0.000000000   1.0
 0.361111111  0.805555556  0.000000000   1.0
 0.361111111  0.833333333  0.000000000   1.0
 0.361111111  0.861111111  0.000000000   1.0
 0.361111111  0.888888889  0.000000000   1.0
 0.361111111  0.916666667  0.000000000   1.0
 0.361111111  0.944444444  0.000000000   1.0
 0.361111111  0.972222222  0.000000000   1.0
 0.388888889  0.000000000  0.000000000   1.0
 0.388888889  0.027777778  0.000000000   1.0
 0.388888889  0.055555556  0.000000000   1.0
 0.388888889  0.083333333  0.000000000   1.0
 0.388888889  0.111111111  0.000000000   1.0
 0.388888889  0.138888889  0.000000000   1.0
 0.388888889  0.166666667  0.000000000   1.0
 0.388888889  0.194444444  0.000000000   1.0
 0.388888889  0.222222222  0.000000000   1.0
 0.388888889  0.250000000  0.000000000   1.0
 0.388888889  0.277777778  0.000000000   1.0
 0.388888889  0.305555556  0.000000000   1.0
 0.388888889  0.333333333  0.000000000   1.0
 0.388888889  0.361111111  0.000000000   1.0
 0.388888889  0.388888889  0.000000000   1.0
 0.388888889  0.416666667  0.000000000   1.0
 0.388888889  0.444444444  0.000000000   1.0
 0.388888889  0.472222222  0.000000000   1.0
 0.388888889  0.500000000  0.000000000   1.0
 0.388888889  0.527777778  0.000000000   1.0
 0.388888889  0.555555556  0.000000000   1.0
 0.388888889  0.583333333  0.000000000   1.0
 0.388888889  0.611111111  0.000000000   1.0
 0.388888889  0.638888889  0.000000000   1.0
 0.388888889  0.666666667  0.000000000   1.0
 0.388888889  0.694444444  0.000000000   1.0
 0.388888889  0.722222222  0.000000000   1.0
 0.388888889  0.750000000  0.000000000   1.0
 0.388888889  0.777777778  0.000000000   1.0
 0.388888889  0.805555556  0.000000000   1.0
 0.388888889  0.833333333  0.000000000   1.0
 0.388888889  0.861111111  0.000000000   1.0
 0.388888889  0.888888889  0.000000000   1.0
 0.388888889  0.916666667  0.000000000   1.0
 0.388888889  0.944444444  0.000000000   1.0
 0.388888889  0.972222222  0.000000000   1.0
 0.416666667  0.000000000  0.000000000   1.0
 0.416666667  0.027777778  0.000000000   1.0
 0.416666667  0.055555556  0.000000000   1.0
 0.416666667  0.083333333  0.000000000   1.0
 0.416666667  0.111111111  0.000000000   1.0
 0.416666667  0.138888889  0.000000000   1.0
 0.416666667  0.166666667  0.000000000   1.0
 0.416666667  0.194444444  0.000000000   1.0
 0.416666667  0.222222222  0.000000000   1.0
 0.416666667  0.250000000  0.000000000   1.0
 0.416666667  0.277777778  0.000000000   1.0
 0.416666667  0.305555556  0.000000000   1.0
 0.416666667  0.333333333  0.000000000   1.0
 0.416666667  0.361111111  0.000000000   1.0
 0.416666667  0.388888889  0.000000000   1.0
 0.416666667  0.416666667  0.000000000   1.0
 0.416666667  0.444444444  0.000000000   1.0
 0.416666667  0.472222222  0.000000000   1.0
 0.416666667  0.500000000  0.000000000   1.0
 0.416666667  0.527777778  0.000000000   1.0
 0.416666667  0.555555556  0.000000000   1.0
 0.416666667  0.583333333  0.000000000   1.0
 0.416666667  0.611111111  0.000000000   1.0
 0.416666667  0.638888889  0.000000000   1.0
 0.416666667  0.666666667  0.000000000   1.0
 0.416666667  0.694444444  0.000000000   1.0
 0.416666667  0.722222222  0.000000000   1.0
 0.416666667  0.750000000  0.000000000   1.0
 0.416666667  0.777777778  0.000000000   1.0
 0.416666667  0.805555556  0.000000000   1.0
 0.416666667  0.833333333  0.000000000   1.0
 0.416666667  0.861111111  0.000000000   1.0
 0.416666667  0.888888889  0.000000000   1.0
 0.416666667  0.916666667  0.000000000   1.0
 0.416666667  0.944444444  0.000000000   1.0
 0.416666667  0.972222222  0.000000000   1.0
 0.444444444  0.000000000  0.000000000   1.0
 0.444444444  0.027777778  0.000000000   1.0
 0.444444444  0.055555556  0.000000000   1.0
 0.444444444  0.083333333  0.000000000   1.0
 0.444444444  0.111111111  0.000000000   1.0
 0.444444444  0.138888889  0.000000000   1.0
 0.444444444  0.166666667  0.000000000   1.0
 0.444444444  0.194444444  0.000000000   1.0
 0.444444444  0.222222222  0.000000000   1.0
 0.444444444  0.250000000  0.000000000   1.0
 0.444444444  0.277777778  0.000000000   1.0
 0.444444444  0.305555556  0.000000000   1.0
 0.444444444  0.333333333  0.000000000   1.0
 0.444444444  0.361111111  0.000000000   1.0
 0.444444444  0.388888889  0.000000000   1.0
 0.444444444  0.416666667  0.000000000   1.0
 0.444444444  0.444444444  0.000000000   1.0
 0.444444444  0.472222222  0.000000000   1.0
 0.444444444  0.500000000  0.000000000   1.0
 0.444444444  0.527777778  0.000000000   1.0
 0.444444444  0.555555556  0.000000000   1.0
 0.444444444  0.583333333  0.000000000   1.0
 0.444444444  0.611111111  0.000000000   1.0
 0.444444444  0.638888889  0.000000000   1.0
 0.444444444  0.666666667  0.000000000   1.0
 0.444444444  0.694444444  0.000000000   1.0
 0.444444444  0.722222222  0.000000000   1.0
 0.444444444  0.750000000  0.000000000   1.0
 0.444444444  0.777777778  0.000000000   1.0
 0.444444444  0.805555556  0.000000000   1.0
 0.444444444  0.833333333  0.000000000   1.0
 0.444444444  0.861111111  0.000000000   1.0
 0.444444444  0.888888889  0.000000000   1.0
 0.444444444  0.916666667  0.000000000   1.0
 0.444444444  0.944444444  0.000000000   1.0
 0.444444444  0.972222222  0.000000000   1.0
 0.472222222  0.000000000  0.000000000   1.0
 0.472222222  0.027777778  0.000000000   1.0
 0.472222222  0.055555556  0.000000000   1.0
 0.472222222  0.083333333  0.000000000   1.0
 0.472222222  0.111111111  0.000000000   1.0
 0.472222222  0.138888889  0.000000000   1.0
 0.472222222  0.166666667  0.000000000   1.0
 0.472222222  0.194444444  0.000000000   1.0
 0.472222222  0.222222222  0.000000000   1.0
 0.472222222  0.250000000  0.000000000   1.0
 0.472222222  0.277777778  0.000000000   1.0
 0.472222222  0.305555556  0.000000000   1.0
 0.472222222  0.333333333  0.000000000   1.0
 0.472222222  0.361111111  0.000000000   1.0
 0.472222222  0.388888889  0.000000000   1.0
 0.472222222  0.416666667  0.000000000   1.0
 0.472222222  0.444444444  0.000000000   1.0
 0.472222222  0.472222222  0.000000000   1.0
 0.472222222  0.500000000  0.000000000   1.0
 0.472222222  0.527777778  0.000000000   1.0
 0.472222222  0.555555556  0.000000000   1.0
 0.472222222  0.583333333  0.000000000   1.0
 0.472222222  0.611111111  0.000000000   1.0
 0.472222222  0.638888889  0.000000000   1.0
 0.472222222  0.666666667  0.000000000   1.0
 0.472222222  0.694444444  0.000000000   1.0
 0.472222222  0.722222222  0.000000000   1.0
 0.472222222  0.750000000  0.000000000   1.0
 0.472222222  0.777777778  0.000000000   1.0
 0.472222222  0.805555556  0.000000000   1.0
 0.472222222  0.833333333  0.000000000   1.0
 0.472222222  0.861111111  0.000000000   1.0
 0.472222222  0.888888889  0.000000000   1.0
 0.472222222  0.916666667  0.000000000   1.0